\ Model RRP_copy
\ LP format - for model browsing. Use MPS format to capture full model detail.
Maximize
 
Subject To
 R197: 42 x_kij[1,10,7] - t_ki[1,7] + t_ki[1,10] <= 28.17277323538837
 R215: t_ki[1,10] >= 120
 R222: t_ki[1,7] <= 90
Bounds
 t_ki[1,7] free
 t_ki[1,10] free
Binaries
 x_kij[1,10,7]
End
